param years := 6;
param cash_req :=
1 100
2 200
3 800
4 100
5 800
6 1200
;

param bonds := 10;
param price :=
1 109
2 94.8
3 99.5
4 93.1
5 97.2
6 92.9
7 110
8 104
9 102
10 95.2
;

param cash_flow :=
1 1 10
1 2 7
1 3 8
1 4 6
1 5 7
1 6 5
1 7 10
1 8 8
1 9 7
1 10 100
2 1 10
2 2 7
2 3 8
2 4 6
2 5 7
2 6 5
2 7 10
2 8 8
2 9 107
3 1 10
3 2 7
3 3 8
3 4 6
3 5 7
3 6 5
3 7 110
3 8 108
4 1 10
4 2 7
4 3 8
4 4 6
4 5 7
4 6 105
5 1 10
5 2 7
5 3 8
5 4 106
5 5 107
6 1 110
6 2 107
6 3 108
;
